Route #1: 28 23 57 48 54 11 63 7
Route #2: 55 29 62 39 51 17
Route #3: 33 1 12 13 24 52 25 21
Route #4: 5 53 56 10 8 19 18
Route #5: 32 20 58 40 59 44
Route #6: 45 61 42 38 2 41 16 50 60
Route #7: 30 37 35 36 3 4 49
Route #8: 43 27 14 9 22 15
Route #9: 47 34 31 26 6 64 46
Cost 1174
Time 0.270967
Tempo = 0.2844547999993665